WARNING: for repeatability, setting FPU to use double precision
============================[ Problem Statistics ]=============================
|                                                                             |
|  Number of variables:       7093885                                         |
|  Number of clauses:        42608491                                         |
|  Parse time:                  12.45 s                                       |
|                                                                             |
c ============================[ Search Statistics ]==============================
c | Conflicts |          ORIGINAL         |          LEARNT          | Progress |
c |           |    Vars  Clauses Literals |    Limit  Clauses Lit/Cl |          |
c ===============================================================================
c Switched to VSIDS.
c Switched to LRB.
c Switched to VSIDS.
c Switched to LRB.
c Switched to VSIDS.
c Switched to LRB.
c Switched to VSIDS.
c Switched to LRB.
c Switched to VSIDS.
c Switched to LRB.
c Switched to VSIDS.
c Switched to LRB.
c Switched to VSIDS.
c Switched to LRB.
c Switched to VSIDS.
c Switched to LRB.
c Switched to VSIDS.
c Switched to LRB.
c Switched to VSIDS.
c Switched to LRB.
c Switched to VSIDS.
c Switched to LRB.
c Switched to VSIDS.
c Switched to LRB.
c Switched to VSIDS.
c Switched to LRB.
c Switched to VSIDS.
c ===============================================================================
restarts                  : 5292
conflicts                 : 1163617        (326 /sec)
decisions                 : 4901762683     (0.00 % random) (1371924 /sec)
propagations              : 7218997000     (2020480 /sec)
conflict literals         : 17895904       (14.31 % deleted)

conflicts w/ DIP found    : 689081         (59.22 % of conflicts)
conflicts w/ dangerous DIP: 0              (0.00 % of conflicts)
conflicts w/ DIP-learning : 4              (0.00 % of conflicts)
decisions on ext vars     : 136            (0.00 % of decisions)
total ext vars            : 4           
tried delete ext vars     : 0           
deleted ext vars          : 0           
max ext vars              : 4           

Memory used               : 5027.00 MB
CPU time                  : 3572.91 s
DIP computation time      : 8.48623 s (0.24 % of total time)
ER_sel time               : 1.09429 s
ER_add time               : 0.000595 s
ER_delC time              : 0 s
ER_delV time              : 0 s
ER_sub time               : 1.66084 s
ER_stat time              : 0 s

INDETERMINATE
